c --- [ banner ] -------------------------------------------------------------
c 
c CaDiCaL Radically Simplified CDCL SAT Solver
c Copyright (c) 2016-2021 A. Biere, M. Fleury, N. Froleyks
c 
c Version 1.5.2 a5f15211db36c3956764e18194dd5bd63bf3b5e6
c g++ (GCC) 9.3.0 -Wall -Wextra -O3 -DNDEBUG
c Fri Oct 21 01:27:37 EDT 2022 Linux gra-login3 3.10.0-1160.66.1.el7.x86_64 x86_64
c 
c --- [ limit ] --------------------------------------------------------------
c 
c setting conflict limit to 200000 conflicts (due to '200000')
c 
c --- [ parsing input ] ------------------------------------------------------
c 
c reading DIMACS file from '33.cubes6173.adj'
c opening file to read '33.cubes6173.adj'
c found 'p cnf 6160 1595482' header
c parsed 1595482 clauses in 21.09 seconds process time
c closing file '33.cubes6173.adj'
c after reading 1457566823 bytes 1390.0 MB
c 
c --- [ options ] ------------------------------------------------------------
c 
c all options are set to their default value
c 
c --- [ solving ] ------------------------------------------------------------
c 
c time measured in process time since initialization
c 
c  seconds    reductions  redundant   irredundant
c          MB     restarts       trail       variables
c            level   conflicts       glue         remaining
c 
c * 21.10 1381  0 0   0    0    0  0% 0 1595422 2327 38%
c { 22.43 1427  0 0   0    0    0  0% 0 1595422 2327 38%
c i 27.01 1492 431 0   7   69   59 32% 7 1595422 2326 38%
c i 27.52 1493 404 0   9   74   63 31% 8 1595422 2315 38%
c i 28.03 1495 297 0  17  120   95 30% 24 1595422 2295 37%
c i 28.40 1496 261 0  21  137  111 29% 25 1595422 2294 37%
c i 28.48 1496 254 0  22  141  114 29% 25 1595422 2293 37%
c - 37.40 1478 156 1  55  300  248 28% 31 312937 2293 37%
c i 37.64 1359 154 1  55  308  254 28% 32 312937 2292 37%
c i 37.71 1359 154 1  55  310  255 28% 32 312937 2288 37%
c i 37.78 1359 153 1  55  313  257 28% 32 312937 2287 37%
c i 40.10 1361 138 1  79  433  367 28% 36 312937 2280 37%
c i 40.96 1361 111 1  80  648  558 28% 35 312937 2279 37%
c i 41.02 1361 110 1  82  666  575 28% 35 312937 2278 37%
c i 41.04 1361 110 1  82  668  576 28% 35 312937 2277 37%
c i 41.87 1361 101 1  88  796  682 29% 34 312937 2276 37%
c i 41.90 1361 100 1  88  805  690 29% 34 312937 2275 37%
c i 41.91 1361 100 1  88  806  690 29% 34 312937 2274 37%
c i 42.30 1361 96 1  91  895  762 29% 34 312937 2273 37%
c i 43.09 1361 95 1  93  979  827 29% 34 312937 2272 37%
c 
c  seconds    reductions  redundant   irredundant
c          MB     restarts       trail       variables
c            level   conflicts       glue         remaining
c 
c } 43.53 1362 97 1  96 1000  847 29% 35 312937 2272 37%
c [ 43.53 1362  0 1  96 1000  847  0% 0 312937 2272 37%
c O 43.54 1362 62 1  96 1002  849 19% 1 312937 2272 37%
c i 44.56 1362 17 1  96 1135  942 30% 10 312937 2271 37%
c i 44.57 1362 17 1  96 1149  955 31% 11 312937 2270 37%
c i 44.59 1362 20 1  96 1166  965 31% 13 312937 2269 37%
c - 45.29 1501 22 2  96 1198  882 31% 15 312705 2269 37%
c i 46.19 1501 22 2  96 1550 1130 32% 17 312705 2268 37%
c i 46.31 1501 22 2  96 1645 1183 32% 17 312705 2267 37%
c i 46.58 1501 22 2  96 1990 1379 32% 18 312705 2266 37%
c i 46.88 1501 20 2  97 2332 1540 32% 17 312705 2265 37%
c - 47.74 1500 23 3  97 2545 1212 31% 17 312693 2265 37%
c i 48.20 1500 23 3  97 2561 1227 50% 17 312693 2264 37%
c i 48.41 1500 25 3  97 2649 1303 51% 18 312693 2263 37%
c i 48.45 1500 27 3  97 2706 1348 51% 19 312693 2262 37%
c ] 48.62 1500 30 3  97 3000 1535 52% 23 312693 2262 37%
c { 48.62 1500 97 3  97 3000 1535 78% 35 312693 2262 37%
c F 48.73 1500 96 3  99 3005 1538 78% 35 312693 2262 37%
c i 48.74 1500 96 3  99 3005 1538 78% 35 312693 2261 37%
c i 49.19 1500 95 3 104 3034 1563 76% 34 312693 2260 37%
c 
c  seconds    reductions  redundant   irredundant
c          MB     restarts       trail       variables
c            level   conflicts       glue         remaining
c 
c i 49.75 1500 95 3 109 3067 1595 75% 35 312693 2259 37%
c i 50.04 1500 96 3 112 3081 1607 75% 35 312693 2258 37%
c i 50.11 1500 95 3 114 3089 1612 75% 35 312693 2257 37%
c i 50.58 1500 94 3 120 3136 1651 73% 34 312693 2256 37%
c i 51.84 1500 74 3 129 3765 2129 65% 32 312693 2255 37%
c i 52.15 1500 73 3 129 3829 2177 64% 32 312693 2254 37%
c - 54.37 1364 66 4 139 4343 1984 61% 31 312660 2254 37%
c d 56.69 1364 59 4 139 5001 2476 58% 30 312644 2246 36%
c 2 56.78 1364 59 4 139 5001 3918 58% 30 312644 2246 36%
c p 68.66 1364 59 4 139 5001 7654 58% 30 312644 2197 36%
c d 69.23 1364 59 4 139 5001 7329 58% 30 312499 2195 36%
c # 71.03 1365 52 4 143 6006 8075 56% 28 312499 2195 36%
c - 72.62 1491 48 5 143 6587 2772 55% 27 312499 2195 36%
c } 73.87 1491 46 5 151 7002 3055 55% 26 312499 2195 36%
c [ 73.87 1491 30 5 151 7002 3055 52% 23 312499 2195 36%
c - 77.57 1365 29 6 153 9278 2917 52% 23 312499 2195 36%
c I 78.65 1365 29 6 153 10007 3403 51% 24 312499 2195 36%
c - 84.66 1491 33 7 155 12420 3712 50% 27 312499 2195 36%
c ] 88.33 1491 33 7 156 15002 5398 51% 28 312499 2195 36%
c { 88.33 1491 46 7 156 15002 5398 55% 26 312499 2195 36%
c 
c  seconds    reductions    redundant   irredundant
c          MB     restarts         trail       variables
c            level    conflicts        glue         remaining
c 
c p 91.71 1491 46 7 157 15002 10031 55% 26 312499 2195 36%
c B 92.03 1491 46 7 158 15009 10038 54% 26 312499 2195 36%
c - 94.68 1365 43 8 172 16008 4311 53% 25 312499 2195 36%
c s 96.98 1365 36 8 176 18844 6228 51% 23 311268 2195 36%
c v 103.52 1365 36 8 176 18844 6228 51% 23 311259 2195 36%
c w 103.69 1365 36 8 176 18844 6225 51% 23 311259 2195 36%
c t 103.70 1365 36 8 176 18844 6222 51% 23 311252 2195 36%
c e 105.37 1367 36 8 176 18844 5811 51% 23 308648 833 14%
c s 105.48 1367 36 8 176 18844 5811 51% 23 308565 833 14%
c - 108.30 1367 35 9 179 20045 4767 70% 22 308565 833 14%
c W 111.25 1367 35 9 242 21012 5463 69% 23 308565 833 14%
c - 115.53 1367 32 10 315 24514 5140 72% 22 308565 833 14%
c F 125.39 1367 31 10 459 28014 7381 72% 22 308565 833 14%
c - 127.76 1367 30 11 461 29428 5785 72% 21 308565 833 14%
c p 135.61 1367 31 11 490 30002 8826 72% 21 308565 832 14%
c } 137.37 1367 30 11 490 31003 9515 72% 21 308565 832 14%
c [ 137.37 1367 33 11 490 31003 9515 139% 28 308565 832 14%
c - 141.79 1367 29 12 492 34794 6401 118% 25 308562 832 14%
c B 143.28 1367 28 12 493 36019 7087 114% 24 308562 832 14%
c - 147.97 1367 29 13 496 40602 6892 102% 25 308562 832 14%
c 
c  seconds     reductions    redundant   irredundant
c           MB      restarts        trail       variables
c             level     conflicts       glue        remaining
c 
c W 152.99 1367 30 13 497 45023 9820 95% 25 308562 832 14%
c - 154.45 1368 29 14 498 46859 7467 93% 25 308562 832 14%
c p 159.01 1368 29 14 498 50004 12147 90% 25 308562 832 14%
c s 161.83 1368 29 14 498 52980 13887 88% 25 308418 832 14%
c v 166.63 1368 29 14 498 52980 13887 88% 25 308401 832 14%
c w 166.90 1368 29 14 498 52980 13852 88% 25 308401 832 14%
c t 166.91 1368 29 14 498 52980 13850 88% 25 308401 832 14%
c e 168.35 1368 29 14 498 52980 13841 88% 25 308400 831 13%
c s 168.52 1368 29 14 498 52980 13841 88% 25 308267 831 13%
c - 171.35 1368 29 15 498 53564 8239 88% 25 308267 831 13%
c O 173.03 1368 29 15 499 55027 9194 87% 24 308267 831 13%
c - 177.69 1368 28 16 504 60713 8563 84% 24 308267 831 13%
c ] 179.32 1368 28 16 505 63004 10022 84% 24 308267 831 13%
c { 179.32 1368 30 16 505 63004 10022 72% 21 308267 831 13%
c B 182.17 1368 29 16 552 66030 12005 73% 21 308267 831 13%
c - 194.56 1368 30 17 828 68306 9403 72% 21 308267 831 13%
c 3 202.56 1368 28 17 952 75004 14415 73% 21 308267 831 13%
c p 211.07 1368 28 17 952 75004 16677 73% 21 308267 830 13%
c - 213.31 1368 28 18 952 76349 10141 73% 20 308265 830 13%
c W 216.29 1368 28 18 991 78034 11468 73% 20 308265 830 13%
c 
c  seconds     reductions      redundant   irredundant
c           MB      restarts          trail       variables
c             level      conflicts        glue        remaining
c 
c - 224.98 1368 26 19 1104 84835 10424 73% 20 308265 830 13%
c # 229.89 1368 25 19 1187 91035 14451 74% 19 308265 830 13%
c - 233.63 1368 25 20 1223 93768 10910 73% 19 308265 830 13%
c - 254.88 1368 24 21 1548 103148 11652 73% 19 308265 830 13%
c s 256.64 1368 24 21 1561 104194 12296 73% 19 307873 830 13%
c v 262.65 1368 24 21 1561 104194 12296 73% 19 307842 830 13%
c w 262.99 1368 24 21 1561 104194 12296 73% 19 307842 830 13%
c e 264.54 1368 24 21 1561 104194 12296 73% 19 307842 829 13%
c s 264.78 1368 24 21 1561 104194 12294 73% 19 307626 829 13%
c p 275.75 1368 24 21 1608 105004 15929 73% 19 307626 827 13%
c B 276.40 1368 24 21 1608 105040 15953 73% 19 307626 827 13%
c - 289.20 1368 24 22 1743 112976 12757 73% 18 307620 827 13%
c W 303.14 1368 23 22 1791 120041 17090 73% 18 307620 827 13%
c - 306.89 1368 23 23 1850 123243 13239 73% 18 307620 827 13%
c } 312.94 1368 22 23 1979 127004 15614 73% 18 307620 827 13%
c [ 312.94 1368 28 23 1979 127004 15614 84% 24 307620 827 13%
c ] 316.32 1368 27 23 1979 130323 17435 83% 23 307620 827 13%
c 1 316.32 1368 27 23 1979 130323 17435 83% 23 307620 827 13%
c 
c --- [ writing output ] -----------------------------------------------------
c 
c writing simplified CNF to DIMACS file 'simp/33.cubes6173.adj.simp1'
c * 316.32 1368 27 23 1979 130323 17435 83% 23 307620 827 13%
c opening file to write 'simp/33.cubes6173.adj.simp1'
c writing 'p cnf 6160 307620' header
c closing file 'simp/33.cubes6173.adj.simp1'
c after writing 144351588 bytes 137.7 MB
c wrote 307620 clauses in 1.08 seconds process time
c 
c --- [ writing extension ] --------------------------------------------------
c 
c writing extension stack to 'simp/33.cubes6173.adj.ext1'
c opening file to write 'simp/33.cubes6173.adj.ext1'
c closing file 'simp/33.cubes6173.adj.ext1'
c after writing 88784 bytes 0.1 MB
c wrote 3949 witnesses in 0.00 seconds process time
c 
c --- [ result ] -------------------------------------------------------------
c 
s SATISFIABLE
c 
c --- [ run-time profiling ] -------------------------------------------------
c 
c process time taken by individual solving procedures
c (percentage relative to process time for solving)
c 
c       227.56   77.08% search
c       168.48   57.07% unstable
c        67.66   22.92% simplify
c        52.45   17.77% stable
c        38.06   12.89% probe
c        21.09    7.14% parse
c        18.02    6.10% vivify
c         8.68    2.94% elim
c         5.30    1.80% walk
c         1.33    0.45% lucky
c         1.02    0.35% subsume
c         0.34    0.12% ternary
c   =================================
c       295.23   93.01% solve
c 
c last line shows process time for solving
c (percentage relative to total process time)
c 
c --- [ statistics ] ---------------------------------------------------------
c 
c chronological:             22220        17.05 %  of conflicts
c conflicts:                130323       441.43    per second
c decisions:                230740       781.57    per second
c eliminated:                 1364        22.14 %  of all variables
c fixed:                       815        13.23 %  of all variables
c learned:                  127523        97.85 %  per conflict
c learned_lits:           23391284       100.00 %  learned literals
c minimized:                     0         0.00 %  learned literals
c shrunken:               15863772        67.82 %  learned literals
c minishrunken:            1520184         6.50 %  learned literals
c propagations:            8845802         0.03 M  per second
c reduced:                   67277        51.62 %  per conflict
c rephased:                     15      8688.20    interval
c restarts:                   1979        65.85    interval
c stabilizing:                   4        34.78 %  of conflicts
c substituted:                  10         0.16 %  of all variables
c subsumed:                  45021         1.26 %  of all clauses
c strengthened:              10795         0.30 %  of all clauses
c ternary:                    5167         0.83 %  of resolved
c vivified:                    114         0.00 %  of all clauses
c walked:                        4     32580.75    interval
c weakened:                   3134         3.03    average size
c 
c seconds are measured in process time for solving
c 
c --- [ resources ] ----------------------------------------------------------
c 
c total process time since initialization:       317.41    seconds
c total real time since initialization:          317.73    seconds
c maximum resident set size of process:         1638.31    MB
c 
c --- [ shutting down ] ------------------------------------------------------
c 
c exit 10
WARNING! DIMACS header mismatch: wrong number of variables.
============================[ Problem Statistics ]=============================
|                                                                             |
|  Number of variables:          6120                                         |
|  Number of clauses:          307622                                         |
|  Parse time:                   1.97 s                                       |
|  Simplification time:          0.05 s                                       |
|                                                                             |
============================[ Search Statistics ]====================================================
| Conflicts |          ORIGINAL         |          LEARNT          | Num Sols |      SUBGRAPHS      |
|           |    Vars  Clauses Literals |    Limit  Clauses Lit/Cl |          | Canonical Noncanon. |
=====================================================================================================
|       122 |    6028   307644 31182586 |     2000      122    137 |        0 |        25        22 |
|       276 |    6028   307648 31182833 |     2000      276    128 |        0 |        36        26 |
|       667 |    6028   307814 31186146 |     2000      667     90 |        0 |       138       192 |
|      1454 |    6028   308264 31192863 |     2000     1454     58 |        0 |       242       642 |
|      2038 |    6028   308342 31194358 |     3603     1041     15 |        0 |       270       720 |
|      2846 |    6028   308391 31195187 |     3603     1849     46 |        0 |       288       769 |
|      4004 |    6028   308410 31195848 |     3603     3007     56 |        0 |       328       788 |
|      7690 |    6028   310388 31232077 |     5009     4899     33 |        0 |       869      2766 |
|     13121 |    6028   313257 31279394 |     7554     4675     16 |        0 |      1489      5635 |
|     17422 |    6028   313714 31286657 |     8780     5202     38 |        0 |      1624      6092 |
|     25933 |    6028   316459 31329364 |     9990     9323     32 |        0 |      2166      8837 |
|     38347 |    6028   320224 31396329 |    12407    11154     45 |        0 |      2727     12602 |
|     55033 |    6028   323936 31456023 |    16009     7442     12 |        0 |      3424     16314 |
|     78283 |    6028   327725 31512032 |    18410    14093     43 |        0 |      4037     20103 |
|    117283 |    6028   337533 31648660 |    23214    12697     25 |        0 |      5343     29911 |
|    175950 |    6028   352411 31838258 |    28012    21362     22 |        0 |      6603     44789 |
|    251002 |    6028   361779 31975728 |    34037    20439     27 |        0 |      7824     54157 |
=====================================================================================================
Number of solutions   : 0
Canonical subgraphs   : 8433           (14 /sec)
          order  3    : 1              (142857 /sec)
          order  4    : 1              (500000 /sec)
          order  5    : 1              (250000 /sec)
          order  6    : 1              (55556 /sec)
          order  7    : 1              (9009 /sec)
          order  8    : 2              (1347 /sec)
          order  9    : 6              (312 /sec)
          order 10    : 21             (83 /sec)
          order 11    : 75             (23 /sec)
          order 12    : 412            (10 /sec)
          order 13    : 1170           (11 /sec)
          order 14    : 2094           (18 /sec)
          order 15    : 2484           (17 /sec)
          order 16    : 960            (13 /sec)
          order 17    : 631            (11 /sec)
          order 18    : 444            (10 /sec)
          order 19    : 110            (7 /sec)
          order 20    : 14             (8 /sec)
          order 21    : 5              (10 /sec)
          order 22    : 0              (-nan /sec)
Noncanonical subgraphs: 58766          (129 /sec)
          order  3    : 0              (-nan /sec)
          order  4    : 0              (-nan /sec)
          order  5    : 0              (-nan /sec)
          order  6    : 0              (-nan /sec)
          order  7    : 0              (-nan /sec)
          order  8    : 0              (-nan /sec)
          order  9    : 0              (-nan /sec)
          order 10    : 0              (-nan /sec)
          order 11    : 0              (-nan /sec)
          order 12    : 0              (-nan /sec)
          order 13    : 3314           (5132 /sec)
          order 14    : 11718          (701 /sec)
          order 15    : 2825           (1366 /sec)
          order 16    : 39461          (95 /sec)
          order 17    : 552            (87 /sec)
          order 18    : 773            (71 /sec)
          order 19    : 118            (38 /sec)
          order 20    : 0              (-nan /sec)
          order 21    : 0              (-nan /sec)
Canonicity checking   : 610.504 s
Noncanonicity checking: 454.362 s
Total canonicity time : 1064.87 s
database reductions   : 29
restarts              : 747
conflicts             : 305951         (233 /sec)
decisions             : 475391         (0.00 % random) (362 /sec)
propagations          : 13774277       (10498 /sec)
conflict literals     : 25817071       (52.04 % deleted)
actual reward         : 0.262934
Memory used           : 378.00 MB
CPU time              : 1312.04 s

UNSATISFIABLE
